Version identifier: 20.1.0.0 | 2020-11-10 | 9bedb6d68
Tried aggregator 2 times.
MIP Presolve eliminated 1277 rows and 707 columns.
MIP Presolve modified 2510 coefficients.
Aggregator did 124 substitutions.
Reduced MIP has 1005 rows, 826 columns, and 3145 nonzeros.
Reduced MIP has 201 binaries, 625 generals, 0 SOSs, and 0 indicators.
Presolve time = 0.01 sec. (5.20 ticks)
Found incumbent of value 18.000000 after 0.02 sec. (8.92 ticks)
Probing fixed 30 vars, tightened 273 bounds.
Probing time = 0.00 sec. (1.00 ticks)
Tried aggregator 2 times.
MIP Presolve eliminated 419 rows and 73 columns.
MIP Presolve modified 94 coefficients.
Aggregator did 26 substitutions.
Reduced MIP has 560 rows, 727 columns, and 1750 nonzeros.
Reduced MIP has 322 binaries, 405 generals, 0 SOSs, and 0 indicators.
Presolve time = 0.00 sec. (2.40 ticks)
Probing time = 0.00 sec. (0.18 ticks)
Tried aggregator 1 time.
Detecting symmetries...
MIP Presolve modified 174 coefficients.
Reduced MIP has 560 rows, 727 columns, and 1750 nonzeros.
Reduced MIP has 322 binaries, 405 generals, 0 SOSs, and 0 indicators.
Presolve time = 0.00 sec. (1.46 ticks)
Probing time = 0.00 sec. (0.17 ticks)
Clique table members: 110.
MIP emphasis: balance optimality and feasibility.
MIP search method: dynamic search.
Parallel mode: deterministic, using up to 24 threads.
Root relaxation solution time = 0.00 sec. (1.86 ticks)

        Nodes                                         Cuts/
   Node  Left     Objective  IInf  Best Integer    Best Bound    ItCnt     Gap

*     0+    0                           18.0000        0.0000           100.00%
      0     0        0.5000    55       18.0000        0.5000      198   97.22%
*     0+    0                            7.0000        0.5000            92.86%
      0     0        1.0000    65        7.0000      Cuts: 26      284   85.71%
      0     0        1.0000    82        7.0000      Cuts: 47      363   85.71%
      0     0        1.0000    65        7.0000      Cuts: 13      379   85.71%
      0     0        1.0000    90        7.0000      Cuts: 40      448   85.71%
*     0+    0                            5.0000        1.0000            80.00%
      0     0        cutoff              5.0000        5.0000      448    0.00%
Elapsed time = 0.13 sec. (60.80 ticks, tree = 0.01 MB, solutions = 3)

Mixed integer rounding cuts applied:  12
Zero-half cuts applied:  33
Lift and project cuts applied:  1
Gomory fractional cuts applied:  1

Root node processing (before b&c):
  Real time             =    0.13 sec. (60.88 ticks)
Parallel b&c, 24 threads:
  Real time             =    0.00 sec. (0.00 ticks)
  Sync time (average)   =    0.00 sec.
  Wait time (average)   =    0.00 sec.
                          ------------
Total (root+branch&cut) =    0.13 sec. (60.88 ticks)

Solution status = Optimal
Solution LB = 5
Solution UB = 5
Runtime = 0.14325 seconds
	Command being timed: "/home/min/git_repos/CS598MEBProject/CNT-ILP/build/cnt -s 2 ./output/k6_n30/simC_c1_k6_n30_u1_s1_del04.input-right.cnp"
	User time (seconds): 0.98
	System time (seconds): 0.04
	Percent of CPU this job got: 639%
	Elapsed (wall clock) time (h:mm:ss or m:ss): 0:00.16
	Average shared text size (kbytes): 0
	Average unshared data size (kbytes): 0
	Average stack size (kbytes): 0
	Average total size (kbytes): 0
	Maximum resident set size (kbytes): 56928
	Average resident set size (kbytes): 0
	Major (requiring I/O) page faults: 0
	Minor (reclaiming a frame) page faults: 11956
	Voluntary context switches: 1841
	Involuntary context switches: 85
	Swaps: 0
	File system inputs: 0
	File system outputs: 16
	Socket messages sent: 0
	Socket messages received: 0
	Signals delivered: 0
	Page size (bytes): 4096
	Exit status: 0
